Co1
1.0
0.612372 0.000000 0.353553
0.204124 0.577350 0.353553
0.000000 0.000000 0.707107
Co
1
direct
0.000000 0.000000 0.000000 Co
