Ag4
1.0
2.000000 0.000000 0.000000
0.000000 2.000000 0.000000
0.000000 0.000000 2.000000
Ag
4
direct
0.000000 0.000000 0.000000 Ag
0.000000 0.500000 0.500000 Ag
0.500000 0.000000 0.500000 Ag
0.500000 0.500000 0.000000 Ag
