 H 
 1.0000000000000000
    15.0000000000000000    0.0000000000000000    0.0000000000000000
     0.0000000000000000   15.0000000000000000    0.0000000000000000
     0.0000000000000000    0.0000000000000000   15.0000000000000000
   6
Cartesian
  5.3539190300000001  7.3489744100000003  9.2034532700000007
  4.8348769300000001  9.6966595600000005  7.7804821200000003
  3.4850570799999998  8.1076395600000009 11.1364862500000008
  2.7381304300000000  7.9756972499999996  8.4480061299999996
  5.5807045999999998  9.8283690499999992 10.4693404000000001
  2.9658508100000001 10.4549714399999996  9.7136515899999996
